Solving original (integer) problem with strategy gdp.hull_exact...
--- Job model.gms Start 02/15/26 04:27:28 52.2.0 d8e408be LEX-LEG x86 64bit/Linux
--- Applying:
    /package/gams/52.2/gmsprmun.txt
--- GAMS Parameters defined
    Input /local/scratch/a/sgusev/repos/k_means/data/gams_gurobi_gdp.hull_exact/no_mode/2026-02-15_04-27-28/original/model.gms
    Output /local/scratch/a/sgusev/repos/k_means/data/gams_gurobi_gdp.hull_exact/no_mode/2026-02-15_04-27-28/original/output.lst
    ScrDir /local/scratch/a/sgusev/repos/k_means/data/gams_gurobi_gdp.hull_exact/no_mode/2026-02-15_04-27-28/original/225a/
    SysDir /package/gams/52.2/
    CurDir /local/scratch/a/sgusev/repos/k_means/data/gams_gurobi_gdp.hull_exact/no_mode/2026-02-15_04-27-28/original/
    LogOption 3
    AppendLog 1
Licensee: David Bernal / SECQUOIA Research Group         G251008+0003Ac-GEN
          Purdue University, Davidson School of Chemical EngineeringDCE4838
          225a/gamslice.dat
          5a82958a-fbca-4a23
          node:66820903 mem:995 cores:48 ipport:55231 v:2                  
          Evaluation license: Not for commercial or production use
          The time-limited license stops working on : Jun 30, 2027
System information: 48 physical cores and 995 Gb physical memory detected
GAMS 52.2.0   Copyright (C) 1987-2025 GAMS Development. All rights reserved
--- Starting compilation
--- model.gms(4352) 2 Mb
--- $echo File /local/scratch/a/sgusev/repos/k_means/data/gams_gurobi_gdp.hull_exact/no_mode/2026-02-15_04-27-28/original/gurobi.opt
--- model.gms(6357) 2 Mb
--- Starting execution: elapsed 0:00:00.023
--- model.gms(4361) 3 Mb
--- Generating MINLP model GAMS_MODEL
--- model.gms(4365) 6 Mb
---   1,331 rows  608 columns  3,205 non-zeroes
---   2,016 nl-code  336 nl-non-zeroes
---   48 discrete-columns
--- Range statistics (absolute non-zero finite values)
--- RHS       [min, max] : [ 1.000E+00, 1.000E+00] - Zero values observed as well
--- Bound     [min, max] : [ 1.000E+00, 1.600E+02] - Zero values observed as well
--- Matrix    [min, max] : [ 1.000E+00, 1.600E+02] - Zero values observed as well
--- model.gms(4365) 4 Mb
--- Executing GUROBI (Solvelink=5): elapsed 0:00:00.030
Reading parameter(s) from "/local/scratch/a/sgusev/repos/k_means/data/gams_gurobi_gdp.hull_exact/no_mode/2026-02-15_04-27-28/original/gurobi.opt"
>>  NonConvex 2
>>  Threads 1
>>  MIPGap 1e-06
>>  MIPGapAbs 1e-10
>>  FeasibilityTol 1e-06
>>  OptimalityTol 1e-06
>>  IntFeasTol 1e-05
Finished reading from "/local/scratch/a/sgusev/repos/k_means/data/gams_gurobi_gdp.hull_exact/no_mode/2026-02-15_04-27-28/original/gurobi.opt"

... GRB_LICENSE_FILE = /local/scratch/a/sgusev/gurobi.lic

    Gurobi           52.2.0 d8e408be Dec 8, 2025           LEG x86 64bit/Linux    

... GAMS/Gurobi Link license.
... GMO Q Extraction (ThreePass): 0.00s

    Gurobi Optimizer version 13.0.0 build v13.0.0rc1 (linux64 - "Oracle Linux Server 9.7")
    
    CPU model: AMD EPYC 7643 48-Core Processor, instruction set [SSE2|AVX|AVX2]
    Thread count: 48 physical cores, 96 logical processors, using up to 1 threads
    
    Non-default parameters:
    TimeLimit  300
    MIPGap  1e-06
    LogToConsole  0
    NonConvex  2
    Threads  1
    
    Optimize a model with 1282 rows, 607 columns and 2852 nonzeros (Min)
    Model fingerprint: 0xccab91fe
    Model has 16 linear objective coefficients
    Model has 48 quadratic constraints
    Variable types: 559 continuous, 48 integer (0 binary)
    Coefficient statistics:
      Matrix range     [1e+00, 2e+02]
      QMatrix range    [7e-02, 3e+00]
      Objective range  [1e+00, 1e+00]
      Bounds range     [1e+00, 2e+02]
      RHS range        [1e+00, 1e+00]
    Presolve removed 240 rows and 256 columns
    Presolve time: 0.01s
    Presolved: 1546 rows, 879 columns, 4204 nonzeros
    Presolved model has 240 quadratic constraint(s)
    Variable types: 831 continuous, 48 integer (48 binary)
    
    Root relaxation: objective 0.000000e+00, 491 iterations, 0.01 seconds (0.01 work units)
    
        Nodes    |    Current Node    |     Objective Bounds      |     Work
     Expl Unexpl |  Obj  Depth IntInf | Incumbent    BestBd   Gap | It/Node Time
    
         0     0    0.00000    0    8          -    0.00000      -     -    0s
    H    0     0                      23.5274576    0.00000   100%     -    0s
         0     0    0.00000    0    4   23.52746    0.00000   100%     -    0s
         0     0    0.00000    0   27   23.52746    0.00000   100%     -    0s
    H    0     0                      20.9501362    0.00000   100%     -    0s
         0     0    0.00000    0   26   20.95014    0.00000   100%     -    0s
         0     0    0.00000    0   31   20.95014    0.00000   100%     -    0s
         0     0    0.00000    0   19   20.95014    0.00000   100%     -    0s
         0     0    0.00000    0   32   20.95014    0.00000   100%     -    0s
         0     0    0.00000    0   32   20.95014    0.00000   100%     -    0s
         0     0    0.00000    0   32   20.95014    0.00000   100%     -    0s
         0     0    0.00000    0   26   20.95014    0.00000   100%     -    0s
         0     0    0.00000    0   28   20.95014    0.00000   100%     -    0s
         0     0    0.00000    0   28   20.95014    0.00000   100%     -    0s
         0     0    0.00000    0   28   20.95014    0.00000   100%     -    0s
         0     0    0.00000    0   28   20.95014    0.00000   100%     -    0s
         0     0    0.00000    0   28   20.95014    0.00000   100%     -    0s
         0     0    0.00000    0   28   20.95014    0.00000   100%     -    0s
         0     0    0.00000    0   28   20.95014    0.00000   100%     -    0s
         0     0    0.00000    0   28   20.95014    0.00000   100%     -    0s
         0     0    0.00000    0   30   20.95014    0.00000   100%     -    0s
         0     0    0.00000    0   28   20.95014    0.00000   100%     -    0s
         0     0    0.00000    0   27   20.95014    0.00000   100%     -    0s
         0     0    0.00000    0   27   20.95014    0.00000   100%     -    0s
         0     0    0.00000    0   32   20.95014    0.00000   100%     -    0s
         0     0    0.00000    0   28   20.95014    0.00000   100%     -    0s
         0     0    0.00000    0   31   20.95014    0.00000   100%     -    0s
         0     0    0.00000    0   27   20.95014    0.00000   100%     -    0s
         0     0    0.00000    0   28   20.95014    0.00000   100%     -    0s
         0     0    0.00000    0   27   20.95014    0.00000   100%     -    0s
         0     0    0.00000    0   29   20.95014    0.00000   100%     -    0s
         0     0    0.00000    0   28   20.95014    0.00000   100%     -    0s
         0     0    0.00000    0   26   20.95014    0.00000   100%     -    0s
         0     0    0.00000    0   26   20.95014    0.00000   100%     -    0s
         0     0    0.00000    0   27   20.95014    0.00000   100%     -    0s
         0     0    0.00000    0   27   20.95014    0.00000   100%     -    0s
         0     0    0.00000    0   32   20.95014    0.00000   100%     -    0s
         0     0    0.00000    0   26   20.95014    0.00000   100%     -    0s
         0     0    0.00000    0   22   20.95014    0.00000   100%     -    0s
         0     0    0.00000    0   22   20.95014    0.00000   100%     -    0s
         0     0    0.00000    0   30   20.95014    0.00000   100%     -    1s
         0     0    0.00000    0   26   20.95014    0.00000   100%     -    1s
         0     0    0.00000    0   28   20.95014    0.00000   100%     -    1s
         0     0    0.00000    0   25   20.95014    0.00000   100%     -    1s
         0     0    0.00000    0   28   20.95014    0.00000   100%     -    1s
         0     0    0.00000    0   28   20.95014    0.00000   100%     -    1s
         0     0    0.00000    0   32   20.95014    0.00000   100%     -    1s
         0     0    0.00000    0   28   20.95014    0.00000   100%     -    1s
         0     0    0.00000    0   27   20.95014    0.00000   100%     -    1s
         0     0    0.00000    0   27   20.95014    0.00000   100%     -    1s
         0     0    0.00000    0   26   20.95014    0.00000   100%     -    1s
         0     0    0.00000    0   26   20.95014    0.00000   100%     -    1s
         0     0    0.00000    0   28   20.95014    0.00000   100%     -    1s
         0     0    0.00000    0   28   20.95014    0.00000   100%     -    1s
         0     0    0.00000    0   28   20.95014    0.00000   100%     -    1s
         0     0    0.00000    0   26   20.95014    0.00000   100%     -    1s
         0     0    0.00000    0   27   20.95014    0.00000   100%     -    1s
         0     0    0.00000    0   27   20.95014    0.00000   100%     -    1s
         0     0    0.00000    0   31   20.95014    0.00000   100%     -    1s
         0     0    0.00000    0   24   20.95014    0.00000   100%     -    1s
         0     0    0.00000    0   29   20.95014    0.00000   100%     -    1s
         0     0    0.00000    0   26   20.95014    0.00000   100%     -    1s
         0     0    0.00000    0   31   20.95014    0.00000   100%     -    1s
         0     0    0.00000    0   26   20.95014    0.00000   100%     -    1s
         0     0    0.00000    0   24   20.95014    0.00000   100%     -    1s
         0     0    0.00000    0   24   20.95014    0.00000   100%     -    1s
         0     0    0.00000    0   28   20.95014    0.00000   100%     -    1s
         0     0    0.00000    0   28   20.95014    0.00000   100%     -    1s
         0     0    0.00000    0   28   20.95014    0.00000   100%     -    1s
         0     0    0.00000    0   28   20.95014    0.00000   100%     -    1s
         0     0    0.00000    0   29   20.95014    0.00000   100%     -    1s
         0     0    0.00000    0   29   20.95014    0.00000   100%     -    1s
         0     0    0.00000    0   28   20.95014    0.00000   100%     -    1s
         0     0    0.00000    0   26   20.95014    0.00000   100%     -    1s
         0     0    0.00000    0   28   20.95014    0.00000   100%     -    1s
         0     0    0.00000    0   22   20.95014    0.00000   100%     -    1s
         0     0    0.00000    0   26   20.95014    0.00000   100%     -    1s
         0     0    0.00000    0   22   20.95014    0.00000   100%     -    1s
         0     0    0.00000    0   26   20.95014    0.00000   100%     -    1s
         0     0    0.00000    0   26   20.95014    0.00000   100%     -    1s
         0     0    0.00000    0   31   20.95014    0.00000   100%     -    1s
         0     0    0.00000    0   31   20.95014    0.00000   100%     -    2s
         0     0    0.00000    0   32   20.95014    0.00000   100%     -    2s
         0     0    0.00000    0   27   20.95014    0.00000   100%     -    2s
         0     0    0.00000    0   26   20.95014    0.00000   100%     -    2s
         0     0    0.00000    0   26   20.95014    0.00000   100%     -    2s
         0     0    0.00000    0   30   20.95014    0.00000   100%     -    2s
         0     0    0.00000    0   18   20.95014    0.00000   100%     -    2s
         0     0    0.00000    0   29   20.95014    0.00000   100%     -    2s
         0     0    0.00000    0   28   20.95014    0.00000   100%     -    2s
         0     0    0.00000    0   28   20.95014    0.00000   100%     -    2s
         0     0    0.00000    0   24   20.95014    0.00000   100%     -    2s
         0     0    0.00000    0   29   20.95014    0.00000   100%     -    2s
         0     0    0.00000    0   20   20.95014    0.00000   100%     -    2s
         0     0    0.00000    0   24   20.95014    0.00000   100%     -    2s
         0     0    0.00000    0   24   20.95014    0.00000   100%     -    2s
         0     0    0.00000    0   30   20.95014    0.00000   100%     -    2s
         0     0    0.00000    0   29   20.95014    0.00000   100%     -    2s
         0     0    0.00000    0   28   20.95014    0.00000   100%     -    2s
         0     0    0.00000    0   28   20.95014    0.00000   100%     -    2s
         0     0    0.00000    0   28   20.95014    0.00000   100%     -    2s
         0     0    0.00000    0   28   20.95014    0.00000   100%     -    2s
         0     0    0.00000    0   32   20.95014    0.00000   100%     -    2s
         0     0    0.00000    0   27   20.95014    0.00000   100%     -    2s
         0     0    0.00000    0   29   20.95014    0.00000   100%     -    2s
         0     0    0.00000    0   14   20.95014    0.00000   100%     -    2s
         0     0    0.00000    0   18   20.95014    0.00000   100%     -    2s
         0     0    0.00000    0   18   20.95014    0.00000   100%     -    2s
         0     0    0.00000    0   30   20.95014    0.00000   100%     -    2s
         0     0    0.00000    0   24   20.95014    0.00000   100%     -    2s
         0     0    0.00000    0   30   20.95014    0.00000   100%     -    2s
         0     0    0.00000    0   22   20.95014    0.00000   100%     -    2s
         0     0    0.00000    0   22   20.95014    0.00000   100%     -    2s
         0     0    0.00000    0   22   20.95014    0.00000   100%     -    2s
         0     0    0.00000    0   26   20.95014    0.00000   100%     -    2s
         0     0    0.00000    0   26   20.95014    0.00000   100%     -    2s
         0     0    0.00000    0   31   20.95014    0.00000   100%     -    2s
         0     0    0.00000    0   26   20.95014    0.00000   100%     -    3s
         0     0    0.00000    0   32   20.95014    0.00000   100%     -    3s
         0     0    0.00000    0   28   20.95014    0.00000   100%     -    3s
         0     0    0.00000    0   26   20.95014    0.00000   100%     -    3s
         0     0    0.00000    0   26   20.95014    0.00000   100%     -    3s
         0     0    0.00000    0   30   20.95014    0.00000   100%     -    3s
         0     0    0.00000    0   29   20.95014    0.00000   100%     -    3s
         0     0    0.00000    0   32   20.95014    0.00000   100%     -    3s
         0     0    0.00000    0   29   20.95014    0.00000   100%     -    3s
         0     0    0.00000    0   29   20.95014    0.00000   100%     -    3s
         0     0    0.00000    0   29   20.95014    0.00000   100%     -    3s
         0     0    0.00000    0   29   20.95014    0.00000   100%     -    3s
         0     0    0.00000    0   28   20.95014    0.00000   100%     -    3s
         0     0    0.00000    0   26   20.95014    0.00000   100%     -    3s
         0     0    0.00000    0   26   20.95014    0.00000   100%     -    3s
         0     0    0.00000    0   28   20.95014    0.00000   100%     -    3s
         0     0    0.00000    0   28   20.95014    0.00000   100%     -    3s
         0     0    0.00000    0   30   20.95014    0.00000   100%     -    3s
         0     0    0.00000    0   28   20.95014    0.00000   100%     -    3s
         0     0    0.00000    0   24   20.95014    0.00000   100%     -    3s
         0     0    0.00000    0   20   20.95014    0.00000   100%     -    3s
         0     0    0.00000    0   26   20.95014    0.00000   100%     -    3s
         0     0    0.00000    0   26   20.95014    0.00000   100%     -    3s
         0     0    0.00000    0   28   20.95014    0.00000   100%     -    3s
         0     0    0.00000    0   28   20.95014    0.00000   100%     -    3s
         0     0    0.00000    0   30   20.95014    0.00000   100%     -    3s
         0     0    0.00000    0   30   20.95014    0.00000   100%     -    3s
         0     0    0.00000    0   30   20.95014    0.00000   100%     -    3s
         0     0    0.00000    0   28   20.95014    0.00000   100%     -    3s
         0     0    0.00000    0   30   20.95014    0.00000   100%     -    3s
         0     0    0.00000    0   26   20.95014    0.00000   100%     -    3s
         0     0    0.00000    0   28   20.95014    0.00000   100%     -    3s
         0     0    0.00000    0   22   20.95014    0.00000   100%     -    3s
         0     0    0.00000    0   25   20.95014    0.00000   100%     -    3s
         0     0    0.00000    0   25   20.95014    0.00000   100%     -    3s
         0     0    0.00000    0   26   20.95014    0.00000   100%     -    3s
         0     0    0.00000    0   25   20.95014    0.00000   100%     -    3s
         0     0    0.00000    0   26   20.95014    0.00000   100%     -    3s
         0     0    0.00000    0   26   20.95014    0.00000   100%     -    3s
         0     0    0.00000    0   29   20.95014    0.00000   100%     -    3s
         0     0    0.00000    0   29   20.95014    0.00000   100%     -    4s
         0     0    0.00000    0   31   20.95014    0.00000   100%     -    4s
         0     0    0.00000    0   31   20.95014    0.00000   100%     -    4s
         0     0    0.00000    0   31   20.95014    0.00000   100%     -    4s
         0     0    0.00000    0   31   20.95014    0.00000   100%     -    4s
         0     0    0.00000    0   31   20.95014    0.00000   100%     -    4s
         0     0    0.00000    0   30   20.95014    0.00000   100%     -    4s
         0     0    0.00000    0   32   20.95014    0.00000   100%     -    4s
         0     0    0.00000    0   31   20.95014    0.00000   100%     -    4s
         0     0    0.00000    0   32   20.95014    0.00000   100%     -    4s
         0     0    0.00000    0   16   20.95014    0.00000   100%     -    4s
         0     0    0.00000    0   31   20.95014    0.00000   100%     -    4s
         0     0    0.00000    0   25   20.95014    0.00000   100%     -    4s
         0     0    0.00000    0   28   20.95014    0.00000   100%     -    4s
         0     0    0.00000    0   26   20.95014    0.00000   100%     -    4s
         0     0    0.00000    0   24   20.95014    0.00000   100%     -    4s
         0     0    0.00000    0   24   20.95014    0.00000   100%     -    4s
         0     0    0.00000    0   26   20.95014    0.00000   100%     -    4s
         0     0    0.00000    0   26   20.95014    0.00000   100%     -    4s
         0     0    0.00000    0   28   20.95014    0.00000   100%     -    4s
         0     0    0.00000    0   28   20.95014    0.00000   100%     -    4s
         0     0    0.00000    0   28   20.95014    0.00000   100%     -    4s
         0     0    0.00000    0   28   20.95014    0.00000   100%     -    4s
         0     0    0.00000    0   30   20.95014    0.00000   100%     -    4s
         0     0    0.00000    0   26   20.95014    0.00000   100%     -    4s
         0     0    0.00000    0   22   20.95014    0.00000   100%     -    4s
         0     0    0.00000    0   22   20.95014    0.00000   100%     -    4s
         0     0    0.00000    0   28   20.95014    0.00000   100%     -    4s
         0     0    0.00000    0   28   20.95014    0.00000   100%     -    4s
         0     0    0.00000    0   28   20.95014    0.00000   100%     -    4s
         0     0    0.00000    0   28   20.95014    0.00000   100%     -    4s
         0     0    0.00000    0   28   20.95014    0.00000   100%     -    4s
         0     0    0.00000    0   28   20.95014    0.00000   100%     -    4s
         0     0    0.00000    0   30   20.95014    0.00000   100%     -    4s
         0     0    0.00000    0   28   20.95014    0.00000   100%     -    4s
         0     0    0.00000    0   30   20.95014    0.00000   100%     -    4s
         0     0    0.00000    0   22   20.95014    0.00000   100%     -    4s
         0     0    0.00000    0   26   20.95014    0.00000   100%     -    4s
         0     0    0.00000    0   26   20.95014    0.00000   100%     -    4s
         0     0    0.00000    0   32   20.95014    0.00000   100%     -    4s
         0     0    0.00000    0   28   20.95014    0.00000   100%     -    5s
         0     0    0.00000    0   23   20.95014    0.00000   100%     -    5s
         0     0    0.00000    0   23   20.95014    0.00000   100%     -    5s
         0     0    0.00000    0   31   20.95014    0.00000   100%     -    5s
         0     0    0.00000    0   26   20.95014    0.00000   100%     -    5s
         0     0    0.00000    0   29   20.95014    0.00000   100%     -    5s
         0     0    0.00000    0   24   20.95014    0.00000   100%     -    5s
    H    0     0                      20.7879560    0.00000   100%     -    5s
         0     2    0.00000    0   30   20.78796    0.00000   100%     -    5s
    H    8     8                      20.6696113    0.00000   100%   440    5s
    H   11    11                      20.2694595    0.00000   100%   515    5s
    H  155   122                      19.1377511    0.00000   100%   207    6s
    H  294   227                      18.4261356    0.00000   100%   214    8s
       307   236    4.12982   10   34   18.42614    0.00000   100%   205   10s
    H  385   260                      17.9430962    0.00000   100%   259   14s
    H  388   250                      17.5477735    0.00000   100%   260   14s
    H  395   244                      17.1112289    0.00000   100%   260   14s
    H  398   235                      17.0769719    0.00000   100%   260   14s
       408   243   15.20078   30   15   17.07697    0.00000   100%   259   15s
    H  508   272                      17.0769717    0.26300  98.5%   251   16s
    H  528   261                      17.0769716    0.29916  98.2%   245   16s
    H  630   300                      17.0769716    0.39773  97.7%   247   17s
       925   430    2.81273   17   38   17.07697    1.43787  91.6%   239   20s
    H 1228   648                      16.9362765    1.85597  89.0%   225   21s
    H 1499   781                      16.9362761    2.74107  83.8%   210   23s
    H 1541   807                      16.9362761    2.80620  83.4%   209   23s
      1821   972    9.77732   21   22   16.93628    3.12802  81.5%   203   25s
      2712  1441   13.39705   25   21   16.93628    3.70982  78.1%   186   30s
      3635  1936   16.03383   34   10   16.93628    4.29973  74.6%   179   35s
    H 3864  2014                      16.7804228    4.48482  73.3%   177   36s
    H 3989  2077                      16.7804226    4.53797  73.0%   176   36s
      4653  2366    7.29256   20   32   16.78042    4.99732  70.2%   169   40s
      5884  2906    7.65320   22   27   16.78042    5.36205  68.0%   160   45s
      7063  3467   14.89590   29   16   16.78042    5.80471  65.4%   155   50s
      8376  3999   12.30990   25   21   16.78042    6.14358  63.4%   150   55s
      9705  4570   11.48614   21   24   16.78042    6.40306  61.8%   146   60s
     11047  5089    8.86703   20   30   16.78042    6.64704  60.4%   143   65s
     12384  5588    9.39594   21   28   16.78042    6.83900  59.2%   140   70s
     13825  6140   15.91522   28   20   16.78042    7.06317  57.9%   137   75s
     15262  6671   14.56319   26   18   16.78042    7.24042  56.9%   135   80s
     16642  7161   15.54124   31   16   16.78042    7.41376  55.8%   133   85s
     18003  7634   11.00924   22   26   16.78042    7.56758  54.9%   131   90s
     19460  8165   16.23925   30   18   16.78042    7.72003  54.0%   129   95s
     20991  8695   14.73704   28   19   16.78042    7.82804  53.4%   128  100s
     22495  9177    8.76178   25   28   16.78042    7.96822  52.5%   126  105s
     24054  9707    9.26726   22   24   16.78042    8.10490  51.7%   125  110s
     25585 10229     cutoff   33        16.78042    8.21918  51.0%   124  115s
     26508 10522   16.47262   28   14   16.78042    8.31066  50.5%   123  120s
     28083 11013   10.32543   22   26   16.78042    8.40880  49.9%   122  125s
     29643 11507   14.65670   28   15   16.78042    8.48615  49.4%   121  130s
     31215 11994   10.32422   23   24   16.78042    8.58971  48.8%   120  135s
     32751 12444     cutoff   32        16.78042    8.70125  48.1%   119  140s
     34354 12911     cutoff   32        16.78042    8.78762  47.6%   118  145s
     35976 13351   14.06353   30   17   16.78042    8.87217  47.1%   117  150s
     37520 13772   12.45740   24   24   16.78042    8.95510  46.6%   117  155s
     39189 14212   15.63583   28   14   16.78042    9.03017  46.2%   116  160s
     40840 14660   16.48450   24   15   16.78042    9.10942  45.7%   115  165s
     42517 15051   10.29236   23   28   16.78042    9.17538  45.3%   114  170s
     44141 15441   11.97843   27   23   16.78042    9.27150  44.7%   114  175s
     45715 15875   11.69657   24   23   16.78042    9.32941  44.4%   113  180s
     47378 16297   14.29898   28   20   16.78042    9.39740  44.0%   113  185s
     49032 16706   14.54094   26   18   16.78042    9.45543  43.7%   112  190s
    H50044 16764                      16.5334816    9.50191  42.5%   112  192s
     50561 16849   15.44583   31   17   16.53348    9.51983  42.4%   112  195s
    H50709 16880                      16.5334816    9.52317  42.4%   111  195s
     52104 17212   13.86291   30   19   16.53348    9.57483  42.1%   111  200s
     53730 17524     cutoff   28        16.53348    9.64446  41.7%   111  205s
     55395 17847   11.57925   23   24   16.53348    9.71243  41.3%   110  210s
     57001 18186   15.86794   29   15   16.53348    9.76600  40.9%   110  215s
     58679 18494   14.66768   22   20   16.53348    9.83451  40.5%   110  220s
     60187 18801   15.64253   28   10   16.53348    9.88249  40.2%   109  226s
     61318 19038     cutoff   28        16.53348    9.91457  40.0%   109  230s
     62962 19363   12.73383   26   22   16.53348    9.97804  39.6%   109  235s
     64429 19683   15.23293   28   12   16.53348   10.02656  39.4%   108  240s
     66147 20014   15.92258   29   15   16.53348   10.07546  39.1%   108  245s
     67804 20311     cutoff   31        16.53348   10.12437  38.8%   108  250s
     69557 20627     cutoff   29        16.53348   10.17676  38.4%   107  255s
     71237 20926   16.37056   28   14   16.53348   10.22316  38.2%   107  260s
     72925 21216   12.29419   28   20   16.53348   10.27681  37.8%   107  265s
     74677 21539   14.78361   29   15   16.53348   10.32850  37.5%   106  270s
     76340 21809   16.01471   28   15   16.53348   10.37930  37.2%   106  275s
    H77515 21944                      16.4611788   10.41354  36.7%   106  278s
     77518 21943   12.82506   28   21   16.46118   10.41372  36.7%   106  281s
     78672 22127   15.69318   28   17   16.46118   10.44443  36.6%   106  285s
     80445 22420   12.87820   27   21   16.46118   10.49477  36.2%   105  290s
     82093 22690   14.22009   28   17   16.46118   10.54162  36.0%   105  295s
    
    Cutting planes:
      Gomory: 1
      Flow cover: 10
    
    Explored 83912 nodes (8913330 simplex iterations) in 300.00 seconds (348.81 work units)
    Thread count was 1 (of 96 available processors)
    
    Solution count 10: 16.4612 16.5335 16.7804 ... 19.1378
    
    Time limit reached
    Best objective 1.646117879611e+01, best bound 1.058862511492e+01, gap 35.6752%
    
    User-callback calls 84034, time in user-callback 0.00 sec

--- Reading solution for model GAMS_MODEL
***
*** Solver did not provide marginals for model GAMS_MODEL
***
--- Executing after solve: elapsed 0:05:00.078
--- model.gms(4368) 4 Mb
--- model.gms(6357) 6 Mb
--- Putfile results /local/scratch/a/sgusev/repos/k_means/data/gams_gurobi_gdp.hull_exact/no_mode/2026-02-15_04-27-28/original/results.dat
--- Putfile statresults /local/scratch/a/sgusev/repos/k_means/data/gams_gurobi_gdp.hull_exact/no_mode/2026-02-15_04-27-28/original/resultsstat.dat
*** Status: Normal completion
--- Job model.gms Stop 02/15/26 04:32:28 elapsed 0:05:00.082
Original problem solved. Time taken: 300.6790454387665 seconds
Original objective value: 16.461178796107905
